
******************************************************************************
This program contains Ipopt, a library for large-scale nonlinear optimization.
 Ipopt is released as open source code under the Eclipse Public License (EPL).
         For more information visit http://projects.coin-or.org/Ipopt

This version of Ipopt was compiled from source code available at
    https://github.com/IDAES/Ipopt as part of the Institute for the Design of
    Advanced Energy Systems Process Systems Engineering Framework (IDAES PSE
    Framework) Copyright (c) 2018-2019. See https://github.com/IDAES/idaes-pse.

This version of Ipopt was compiled using HSL, a collection of Fortran codes
    for large-scale scientific computation.  All technical papers, sales and
    publicity material resulting from use of the HSL codes within IPOPT must
    contain the following acknowledgement:
        HSL, a collection of Fortran codes for large-scale scientific
        computation. See http://www.hsl.rl.ac.uk.
******************************************************************************

This is Ipopt version 3.13.2, running with linear solver ma27.

Number of nonzeros in equality constraint Jacobian...:      808
Number of nonzeros in inequality constraint Jacobian.:        0
Number of nonzeros in Lagrangian Hessian.............:      702

Total number of variables............................:      351
                     variables with only lower bounds:      108
                variables with lower and upper bounds:      189
                     variables with only upper bounds:        0
Total number of equality constraints.................:      350
Total number of inequality constraints...............:        0
        inequality constraints with only lower bounds:        0
   inequality constraints with lower and upper bounds:        0
        inequality constraints with only upper bounds:        0

iter    objective    inf_pr   inf_du lg(mu)  ||d||  lg(rg) alpha_du alpha_pr  ls
   0  0.0000000e+00 4.46e-01 4.02e-28  -1.0 0.00e+00    -  0.00e+00 0.00e+00   0
   1  8.9403053e-01 3.51e-01 3.76e+04  -1.0 2.60e+05    -  4.37e-01 2.23e-01h  1
   2  9.4552408e-01 3.48e-01 3.75e+04  -1.0 2.43e+05    -  7.38e-01 7.79e-03h  1
   3  2.6639508e+01 5.13e-02 2.05e+04  -1.0 2.82e+05    -  7.36e-01 9.90e-01h  1
   4  3.4685739e+01 1.80e-03 1.03e+03  -1.0 4.90e+04    -  9.44e-01 9.90e-01h  1
   5  3.4952244e+01 1.96e-05 3.91e+01  -1.0 1.57e+03    -  9.90e-01 9.90e-01h  1
   6  3.4952788e+01 1.93e-05 1.26e+07  -1.0 3.56e+02    -  9.90e-01 1.55e-02f  7
   7  3.4959937e+01 1.81e-05 2.41e+07  -1.0 1.24e+03    -  9.90e-01 6.19e-02f  5
   8  3.5074572e+01 1.83e-04 3.81e+05  -1.0 1.26e+03    -  1.00e+00 9.90e-01H  1
   9  3.5070144e+01 2.11e-06 1.40e+07  -1.0 4.92e+01    -  1.00e+00 9.90e-01h  1
iter    objective    inf_pr   inf_du lg(mu)  ||d||  lg(rg) alpha_du alpha_pr  ls
  10  3.5070314e+01 2.40e-08 1.40e+09  -1.0 1.88e+00    -  1.00e+00 9.90e-01h  1
  11  3.5070316e+01 2.40e-10 1.40e+11  -1.0 1.89e-02    -  1.00e+00 9.90e-01h  1
In iteration 11, 27 Slacks too small, adjusting variable bounds
  12  3.5070316e+01 2.54e-12 1.40e+13  -1.0 1.89e-04    -  1.00e+00 9.90e-01h  1
  13  3.5070316e+01 3.58e-12 3.59e-01  -1.0 1.91e-06    -  1.00e+00 1.00e+00H  1
  14  3.5070314e+01 1.42e-12 1.43e+13  -9.0 1.47e+03    -  9.96e-01 1.30e-05f 17
  15  3.5070312e+01 5.67e-13 1.43e+13  -9.0 1.25e+03    -  9.98e-01 1.53e-05f 17
  16  3.5070311e+01 3.55e-12 1.43e+13  -9.0 1.25e+03    -  1.00e+00 1.53e-05f 17
  17  3.5070307e+01 1.46e-12 1.43e+13  -9.0 1.25e+03    -  1.00e+00 3.05e-05f 16
  18  3.5070307e+01 1.52e-12 1.43e+13  -9.0 1.25e+03    -  1.00e+00 2.91e-11h 36
  19  3.4956388e+01 1.35e-03 2.39e+00  -9.0 1.25e+03    -  1.00e+00 1.00e+00f  1
iter    objective    inf_pr   inf_du lg(mu)  ||d||  lg(rg) alpha_du alpha_pr  ls
  20  3.4954246e+01 2.75e-09 1.03e-03  -9.0 2.31e+01    -  1.00e+00 1.00e+00h  1
  21  3.4954246e+01 2.35e-12 1.46e-11  -9.0 3.71e-04    -  1.00e+00 1.00e+00h  1

Number of Iterations....: 21

                                   (scaled)                 (unscaled)
Objective...............:   3.4954245518798444e+01    3.4954245518798444e+01
Dual infeasibility......:   1.4551915228366852e-11    1.4551915228366852e-11
Constraint violation....:   2.3532287229954818e-12    2.3532287229954818e-12
Complementarity.........:   9.0909185020231244e-10    9.0909185020231244e-10
Overall NLP error.......:   1.2689763470786950e-11    9.0909185020231244e-10


Number of objective function evaluations             = 154
Number of objective gradient evaluations             = 22
Number of equality constraint evaluations            = 154
Number of inequality constraint evaluations          = 0
Number of equality constraint Jacobian evaluations   = 22
Number of inequality constraint Jacobian evaluations = 0
Number of Lagrangian Hessian evaluations             = 21
Total CPU secs in IPOPT (w/o function evaluations)   =      0.054
Total CPU secs in NLP function evaluations           =      1.252

EXIT: Optimal Solution Found.
